NAME : rbg132.tw.8468.tour
COMMENT : Length = 8468
COMMENT : Found by LKH [Keld Helsgaun] Thu Jan 16 16:41:18 2020
TYPE : TOUR
DIMENSION : 131
TOUR_SECTION
1
3
2
5
4
8
6
13
7
14
10
9
12
11
18
16
15
17
20
19
22
21
23
25
24
29
26
30
28
27
31
34
35
33
32
40
39
37
42
36
38
44
43
46
45
41
47
49
50
52
51
48
53
55
54
62
58
57
56
63
61
59
60
66
64
65
76
67
75
73
71
72
69
70
68
79
74
80
78
82
84
77
81
86
83
85
90
89
87
88
94
92
93
91
95
96
97
99
98
103
100
105
102
104
101
107
106
110
108
109
113
111
114
112
119
116
115
125
118
121
122
117
124
120
123
127
129
126
131
128
130
-1
EOF
